c ---- [ banner ] ------------------------------------------------------------
c
c Kissat SAT Solver
c 
c Copyright (c) 2021-2023 Armin Biere University of Freiburg
c Copyright (c) 2019-2021 Armin Biere Johannes Kepler University Linz
c 
c Version 3.1.0 630d64d4d63c2816fc79a1a0340286b39677e97d
c gcc (Ubuntu 7.5.0-3ubuntu1~18.04) 7.5.0 -W -Wall -O3 -DNDEBUG
c Wed Sep 13 16:53:51 HKT 2023 Linux proj173 5.4.0-125-generic x86_64
c
c ---- [ parsing ] -----------------------------------------------------------
c
c opened and reading DIMACS file:
c
c   ../shuffled.cnf
c
c parsed 'p cnf 99 264' header
c closing input after reading 3242 bytes (3 KB)
c finished parsing after 0.00 seconds
c
c ---- [ solving ] -----------------------------------------------------------
c
c  seconds switched conflicts irredundant variables
c         MB reductions redundant   trail  remaining
c          level restarts   binary     glue
c
c *  0.00  1 0 0 0  0   0   0   0 264 0% 0 99 99%
c {  0.00  1 0 0 0  0   0   0   0 264 0% 0 99 99%
c -  0.01  3 28 0 1  1 1003 173   0 264 83% 12 99 99%
c }  0.01  3 28 1 1  1 1003 173   0 264 83% 12 99 99%
c [  0.01  3 0 1 1  1 1003 173   0 264 0% 0 99 99%
c B  0.01  3 0 1 1  1 1003 173   0 264 0% 0 99 99%
c ]  0.02  3 27 2 1  1 1871 662   0 264 69% 12 99 99%
c {  0.02  3 28 2 1  1 1871 662   0 264 83% 12 99 99%
c -  0.02  3 27 2 2  1 2004 271   0 264 81% 12 99 99%
c }  0.03  3 27 3 2  2 2874 731   0 264 77% 11 99 99%
c [  0.03  3 27 3 2  2 2874 731   0 264 69% 12 99 99%
c W  0.03  3 27 3 2  2 2874 731   0 264 69% 12 99 99%
c e  0.03  3 27 3 2  2 2973 784   0 264 67% 12 70 70%
c ^  0.03  3 27 3 2  2 2973 784   0 264 67% 12 70 70%
c -  0.03  3 27 3 3  2 3419 316   0 264 70% 11 70 70%
c ]  0.03  3 25 4 3  2 4222 708   0 264 65% 11 70 70%
c {  0.03  3 27 4 3  2 4222 708   0 264 77% 11 70 70%
c -  0.04  3 26 4 4  9 5153 563   0 264 71% 11 70 70%
c ^  0.04  3 26 4 4  9 5946 993   0 264 72% 10 70 70%
c }  0.04  3 26 5 4 14 6575 1311   0 264 73% 10 70 70%
c
c  seconds  switched conflicts   irredundant variables
c         MB reductions  redundant      trail   remaining
c          level restarts      binary       glue
c
c [  0.04  3 25 5 4 14 6575 1311   0 264 65% 11 70 70%
c I  0.04  3 25 5 4 14 6575 1311   0 264 65% 11 70 70%
c -  0.05  3 25 5 5 14 7153 692   0 264 64% 11 70 70%
c ]  0.05  3 24 6 5 15 8562 1513   0 264 62% 11 70 70%
c {  0.05  3 26 6 5 15 8562 1513   0 264 73% 10 70 70%
c -  0.05  3 25 6 6 15 9390 814   0 264 70% 10 70 70%
c v  0.06  3 24 6 6 15 10400 1308   0 264 67% 10 70 70%
c -  0.07  3 24 6 7 416 11839 1009   0 264 65% 10 70 70%
c ^  0.07  3 24 6 7 578 12388 1358   0 264 64% 11 70 70%
c }  0.07  3 24 7 7 636 12632 1502   0 264 63% 11 70 70%
c [  0.07  3 24 7 7 636 12632 1502   0 264 62% 11 70 70%
c B  0.07  3 24 7 7 636 12632 1502   0 264 62% 11 70 70%
c -  0.08  3 22 7 8 637 14487 1191   0 264 55% 11 70 70%
c v  0.08  3 22 7 8 637 14589 1243   0 264 55% 11 70 70%
c -  0.09  3 21 7 9 638 17317 1151   0 264 53% 11 70 70%
c W  0.09  3 21 7 9 638 18164 1666   0 264 52% 11 70 70%
c v  0.10  3 21 7 9 638 19595 2504   0 264 51% 11 70 70%
c -  0.10  3 21 7 10 639 20318 1374   0 264 51% 11 70 70%
c ]  0.10  3 20 8 10 640 22632 2606   0 264 50% 11 70 70%
c {  0.10  3 24 8 10 640 22632 2606   0 264 63% 11 70 70%
c
c  seconds  switched   conflicts    irredundant variables
c         MB  reductions    redundant      trail   remaining
c          level  restarts        binary       glue
c
c e  0.11  3 24 8 10 640 22763 2691   0 296 63% 11 62 62%
c ^  0.11  3 24 8 10 640 22763 2691   0 296 63% 11 62 62%
c -  0.11  3 24 8 11 734 23481 1201   0 296 63% 11 62 62%
c v  0.12  3 23 8 11 787 25442 2237   0 296 62% 10 62 62%
c -  0.12  3 23 8 12 820 26798 1668   0 296 61% 10 62 62%
c }  0.13  3 22 9 12 827 28793 2648   0 296 60% 10 62 62%
c [  0.13  3 20 9 12 827 28793 2648   0 296 50% 11 62 62%
c O  0.13  3 20 9 12 827 28793 2648   0 296 50% 11 62 62%
c -  0.13  3 20 9 13 827 30263 1812   0 296 50% 11 62 62%
c v  0.14  3 20 9 13 829 32418 3099   0 296 50% 11 62 62%
c -  0.15  3 20 9 14 829 33868 1694   0 296 49% 11 62 62%
c ]  0.15  3 19 10 14 829 34890 2183   0 296 49% 11 62 62%
c {  0.15  3 22 10 14 829 34890 2183   0 296 60% 10 62 62%
c -  0.16  3 21 10 15 829 37612 1703   0 296 57% 10 62 62%
c ^  0.16  3 21 10 15 829 38093 1912   0 296 57% 10 62 62%
c v  0.17  3 21 10 15 1394 40315 3001   0 296 56% 10 62 62%
c -  0.18  3 21 10 16 1468 41485 1721   0 296 56% 10 62 62%
c }  0.18  3 20 11 16 1468 43518 2872   0 296 54% 10 62 62%
c [  0.18  3 19 11 16 1468 43518 2872   0 296 49% 11 62 62%
c B  0.18  3 19 11 16 1468 43518 2872   0 296 49% 11 62 62%
c
c  seconds   switched    conflicts    irredundant variables
c         MB   reductions     redundant      trail   remaining
c          level    restarts        binary       glue
c
c -  0.19  3 19 11 17 1469 45485 1890   0 296 48% 11 62 62%
c v  0.20  4 19 11 17 1470 49157 3718   0 296 48% 11 62 62%
c -  0.21  3 19 11 18 1470 49611 2026   0 296 47% 11 62 62%
c ]  0.22  3 19 12 18 1471 52626 3675   0 296 47% 11 62 62%
c {  0.22  3 20 12 18 1471 52626 3675   0 296 54% 10 62 62%
c -  0.22  3 20 12 19 1537 53854 2321   0 296 54% 10 62 62%
c -  0.23  3 19 12 20 1537 58213 2453   0 296 52% 10 62 62%
c e  0.23  3 19 12 20 1537 58384 2540   0 440 52% 10 53 53%
c !  0.23  3 19 12 20 1537 58384 2540   0 440 52% 10 53 53%
c u  0.24  3 19 12 20 1559 58957 1805   0 440 52% 10 53 53%
c v  0.24  3 19 12 20 1559 58957 1805   0 440 52% 10 53 53%
c -  0.25  4 19 12 21 1559 62686 1945   0 440 53% 10 53 53%
c }  0.25  4 19 13 21 1559 64105 2584   0 440 53% 10 53 53%
c [  0.25  4 19 13 21 1559 64105 2584   0 440 47% 11 53 53%
c W  0.26  4 19 13 21 1559 64105 2584   0 440 47% 11 53 53%
c -  0.26  4 18 13 22 1560 67269 2540   0 440 47% 11 53 53%
c v  0.28  4 18 13 22 1562 71242 4631   0 440 46% 10 53 53%
c ]  0.30  4 18 14 22 1562 71721 4865   0 440 46% 10 53 53%
c {  0.30  4 19 14 22 1562 71721 4865   0 440 53% 10 53 53%
c -  0.30  4 19 14 23 1562 71961 2754   0 440 53% 9 53 53%
c
c  seconds   switched    conflicts    irredundant variables
c         MB   reductions     redundant      trail  remaining
c          level    restarts        binary      glue
c
c -  0.31  4 19 14 24 1837 76757 3261   0 440 52% 9 53 53%
c -  0.34  4 19 14 25 3110 81657 3014   0 440 52% 10 53 53%
c v  0.37  4 19 14 25 3823 84661 4431   0 440 52% 10 53 53%
c }  0.38  4 19 15 25 4328 86439 5245   0 440 51% 10 53 53%
c [  0.38  4 18 15 25 4328 86439 5245   0 440 46% 10 53 53%
c I  0.38  4 18 15 25 4328 86439 5245   0 440 46% 10 53 53%
c -  0.38  4 18 15 26 4328 86659 2727   0 440 46% 10 53 53%
c -  0.40  4 17 15 27 4330 91760 3134   0 440 46% 10 53 53%
c -  0.42  4 17 15 28 4333 96956 3422   0 440 46% 10 53 53%
c v  0.43  4 17 15 28 4333 99232 4591   0 440 45% 10 53 53%
c -  0.45  3 16 15 29 4334 102248 3434   0 440 45% 10 53 53%
c B  0.46  4 16 15 29 4334 104241 5056   0 440 45% 10 53 53%
c ]  0.47  4 16 16 29 4337 107188 7421   0 440 45% 10 53 53%
c {  0.47  4 19 16 29 4337 107188 7421   0 440 51% 10 53 53%
c -  0.48  4 19 16 30 4459 107636 3764   0 440 51% 10 53 53%
c -  0.51  4 19 16 31 5973 113113 3549   0 440 51% 10 53 53%
c v  0.53  4 19 16 31 6434 114975 4430   0 440 51% 10 53 53%
c -  0.56  4 19 16 32 7352 118682 3355   0 440 50% 10 53 53%
c -  0.58  4 18 16 33 7352 124338 3479   0 440 50% 10 53 53%
c }  0.58  4 18 17 33 7352 125526 4113   0 440 49% 10 53 53%
c
c  seconds   switched    conflicts     irredundant variables
c         MB   reductions      redundant      trail   remaining
c          level    restarts         binary       glue
c
c [  0.58  4 16 17 33 7352 125526 4113   0 440 45% 10 53 53%
c W  0.58  4 16 17 33 7352 125526 4113   0 440 45% 10 53 53%
c -  0.60  4 16 17 34 7354 130082 3884   0 440 45% 10 53 53%
c v  0.62  4 16 17 34 7354 131905 5208   0 440 45% 10 53 53%
c -  0.65  5 16 17 35 7357 135913 4390   0 440 44% 10 53 53%
c -  0.67  5 16 17 36 7358 141829 4521   0 440 44% 10 53 53%
c -  0.69  5 15 17 37 7361 147830 4563   0 440 44% 10 53 53%
c O  0.70  5 15 17 37 7361 149752 5699   0 440 44% 10 53 53%
c u  0.70  5 15 17 37 7362 150038 5841   0 440 44% 10 53 53%
c v  0.71  5 15 17 37 7362 150038 5841   0 440 44% 10 53 53%
c ]  0.72  5 15 18 37 7362 151355 6761   0 440 44% 10 53 53%
c {  0.72  5 18 18 37 7362 151355 6761   0 440 49% 10 53 53%
c -  0.73  4 18 18 38 7499 153914 4821   0 440 49% 10 53 53%
c -  0.77  4 18 18 39 8063 160078 5057   0 440 48% 10 53 53%
c -  0.80  4 17 18 40 8063 166324 5135   0 440 48% 10 53 53%
c u  0.81  5 17 18 40 8063 169391 7301   0 440 47% 10 53 53%
c v  0.82  5 17 18 40 8063 169391 7301   0 440 47% 10 53 53%
c -  0.86  4 17 18 41 8411 172648 5323   0 440 47% 10 53 53%
c }  0.86  4 17 19 41 8460 173700 5958   0 440 47% 10 53 53%
c [  0.86  4 15 19 41 8460 173700 5958   0 440 44% 10 53 53%
c
c  seconds   switched    conflicts     irredundant variables
c         MB   reductions      redundant      trail   remaining
c          level    restarts         binary       glue
c
c B  0.87  4 15 19 41 8462 177493 8607   0 440 44% 10 53 53%
c -  0.88  4 15 19 42 8462 179051 5243   0 440 44% 10 53 53%
c -  0.91  4 15 19 43 8465 185532 4908   0 440 44% 10 53 53%
c u  0.93  4 15 19 43 8466 189975 7958   0 440 44% 10 53 53%
c v  0.93  5 15 19 43 8466 189975 7958   0 440 44% 10 53 53%
c -  0.95  4 15 19 44 8467 192090 4712   0 440 43% 10 53 53%
c -  0.98  5 15 19 45 8470 198724 4308   0 440 43% 10 53 53%
c -  1.00  5 15 19 46 8473 205434 4358   0 440 43% 10 53 53%
c W  1.02  5 15 19 46 8473 208944 6323   0 440 43% 10 53 53%
c ]  1.03  5 15 20 46 8474 211134 8003   0 440 43% 10 53 53%
c {  1.03  5 17 20 46 8474 211134 8003   0 440 47% 10 53 53%
c v  1.04  5 17 20 46 8649 211804 8372   0 440 47% 10 53 53%
c -  1.06  5 17 20 47 8758 212217 4840   0 440 47% 10 53 53%
c -  1.11  5 17 20 48 10445 219073 4702   0 440 47% 10 53 53%
c -  1.15  5 17 20 49 11750 226001 4340   0 440 47% 10 53 53%
c -  1.20  5 17 20 50 13068 233001 4205   0 440 46% 11 53 53%
c u  1.21  5 17 20 50 13290 234893 5228   0 440 46% 11 53 53%
c v  1.22  5 17 20 50 13290 234893 5228   0 440 46% 11 53 53%
c }  1.24  5 17 21 50 13290 237874 7522   0 440 46% 11 53 53%
c [  1.24  5 15 21 50 13290 237874 7522   0 440 43% 10 53 53%
c
c  seconds   switched     conflicts     irredundant variables
c         MB   reductions       redundant      trail   remaining
c          level    restarts          binary       glue
c
c -  1.25  4 15 21 51 13291 240072 4988   0 440 43% 10 53 53%
c I  1.26  4 15 21 51 13293 244297 7574   0 440 43% 10 53 53%
c -  1.27  4 15 21 52 13295 247214 5312   0 440 43% 10 53 53%
c -  1.31  5 14 21 53 13296 254425 5307   0 440 43% 10 53 53%
c u  1.34  5 14 21 53 13299 259257 9891   0 440 42% 10 53 53%
c v  1.34  5 14 21 53 13299 259257 9891   0 440 42% 10 53 53%
c -  1.37  5 14 21 54 13301 261705 5404   0 440 42% 10 53 53%
c -  1.41  5 14 21 55 13304 269053 5302   0 440 42% 10 53 53%
c ]  1.44  5 14 22 55 13304 273584 9341   0 440 42% 10 53 53%
c {  1.44  5 17 22 55 13304 273584 9341   0 440 46% 11 53 53%
c -  1.45  4 17 22 56 13304 276469 5165   0 440 46% 11 53 53%
c -  1.48  5 16 22 57 13304 283953 4960   0 440 46% 10 53 53%
c u  1.49  5 16 22 57 13304 284909 5546   0 440 46% 10 53 53%
c v  1.50  5 16 22 57 13304 284909 5546   0 440 46% 10 53 53%
c -  1.54  5 16 22 58 13559 291502 5810   0 440 45% 10 53 53%
c -  1.58  5 16 22 59 13591 299117 5234   0 440 45% 10 53 53%
c }  1.64  5 16 23 59 14306 305100 10063   0 440 45% 10 53 53%
c [  1.64  5 14 23 59 14306 305100 10063   0 440 42% 10 53 53%
c B  1.64  5 14 23 59 14306 305100 10063   0 440 42% 10 53 53%
c -  1.65  5 14 23 60 14307 306798 5716   0 440 42% 10 53 53%
c
c  seconds   switched     conflicts     irredundant variables
c         MB   reductions       redundant      trail   remaining
c          level    restarts          binary       glue
c
c v  1.69  5 14 23 60 14310 311856 9620   0 440 42% 10 53 53%
c -  1.71  5 14 23 61 14311 314543 5967   0 440 42% 10 53 53%
c -  1.76  5 14 23 62 14315 322354 6083   0 440 42% 10 53 53%
c -  1.82  5 14 23 63 14319 330228 6475   0 440 42% 10 53 53%
c ]  1.85  5 13 24 63 14320 335970 12118   0 440 41% 10 53 53%
c {  1.85  5 16 24 63 14320 335970 12118   0 440 45% 10 53 53%
c -  1.88  5 16 24 64 14686 338167 6743   0 440 45% 10 53 53%
c u  1.89  5 15 24 64 14686 340113 8637   0 440 45% 10 53 53%
c v  1.90  5 15 24 64 14686 340113 8637   0 440 45% 10 53 53%
c -  1.95  5 15 24 65 14719 346168 7153   0 440 45% 10 53 53%
c -  1.99  5 15 24 66 14719 354230 6630   0 440 44% 10 53 53%
c -  2.05  5 14 24 67 15177 362354 7452   0 440 44% 10 53 53%
c u  2.10  5 14 24 67 15448 369695 13222   0 440 44% 10 53 53%
c v  2.11  5 14 24 67 15448 369695 13222   0 440 44% 10 53 53%
c -  2.13  5 14 24 68 15606 370539 7683   0 440 44% 10 53 53%
c }  2.15  5 14 25 68 16031 372648 9126   0 440 44% 10 53 53%
c [  2.15  5 13 25 68 16031 372648 9126   0 440 41% 10 53 53%
c W  2.15  5 13 25 68 16031 372648 9126   0 440 41% 10 53 53%
c -  2.20  5 13 25 69 16035 378785 7044   0 440 41% 10 53 53%
c -  2.26  5 13 25 70 16039 387091 6645   0 440 41% 10 53 53%
c
c  seconds   switched     conflicts     irredundant variables
c         MB   reductions       redundant      trail   remaining
c          level    restarts          binary       glue
c
c -  2.32  5 13 25 71 16044 395458 6915   0 440 41% 10 53 53%
c u  2.35  5 13 25 71 16045 400599 11991   0 440 41% 10 53 53%
c v  2.36  5 13 25 71 16045 400599 11991   0 440 41% 10 53 53%
c -  2.39  5 13 25 72 16045 403884 6824   0 440 41% 10 53 53%
c ]  2.43  5 13 26 72 16048 409365 12204   0 440 41% 10 53 53%
c {  2.43  5 14 26 72 16048 409365 12204   0 440 44% 10 53 53%
c -  2.46  5 14 26 73 16295 412370 6903   0 440 44% 10 53 53%
c -  2.53  5 14 26 74 16868 420914 6918   0 440 44% 10 53 53%
c -  2.60  5 14 26 75 17795 429517 7313   0 440 43% 10 53 53%
c u  2.63  5 14 26 75 18207 432847 10111   0 440 43% 10 53 53%
c v  2.64  5 14 26 75 18207 432847 10111   0 440 43% 10 53 53%
c -  2.69  5 14 26 76 18527 438178 7620   0 440 43% 10 53 53%
c -  2.75  5 14 26 77 18527 446897 8344   0 440 43% 10 53 53%
c }  2.78  5 14 27 77 18527 451583 12893   0 440 43% 10 53 53%
c [  2.78  5 13 27 77 18527 451583 12893   0 440 41% 10 53 53%
c O  2.78  5 13 27 77 18527 451583 12893   0 440 41% 10 53 53%
c -  2.81  5 13 27 78 18529 455672 9047   0 440 41% 10 53 53%
c -  2.88  5 13 27 79 18534 464504 8568   0 440 41% 10 53 53%
c u  2.90  5 13 27 79 18536 466446 10496   0 440 41% 10 53 53%
c v  2.91  5 13 27 79 18536 466446 10496   0 440 41% 10 53 53%
c
c  seconds   switched     conflicts     irredundant variables
c         MB   reductions       redundant      trail   remaining
c          level    restarts          binary       glue
c
c -  2.98  5 13 27 80 18540 473392 7962   0 440 40% 10 53 53%
c -  3.05  5 13 27 81 18541 482336 7984   0 440 40% 10 53 53%
c -  3.11  5 12 27 82 18547 491337 8119   0 440 40% 10 53 53%
c ]  3.14  5 12 28 82 18549 497223 13884   0 440 40% 10 53 53%
c {  3.14  5 14 28 82 18549 497223 13884   0 440 43% 10 53 53%
c -  3.17  5 13 28 83 18549 500392 9562   0 440 43% 10 53 53%
c u  3.18  5 13 28 83 18549 501404 10571   0 440 43% 10 53 53%
c v  3.19  5 13 28 83 18549 501404 10571   0 440 43% 10 53 53%
c -  3.27  5 13 28 84 18924 509502 9571   0 440 43% 10 53 53%
c -  3.36  5 13 28 85 18924 518668 9567   0 440 42% 10 53 53%
c s  3.43  5 13 28 85 18924 526954 17665   1 432 42% 9 53 53%
c -  3.44  5 13 28 86 18938 527887 10903   1 432 42% 9 53 53%
c -  3.53  5 12 28 87 19179 537161 11032   1 432 42% 9 53 53%
c u  3.55  5 12 28 87 19228 537729 11551  17 432 42% 9 53 53%
c v  3.55  5 12 28 87 19228 537729 11475  93 432 42% 9 53 53%
c t  3.56  5 12 28 87 19228 537729 11475   1 432 42% 9 53 53%
c }  3.63  5 12 29 87 19640 545363 18075   1 432 42% 9 53 53%
c [  3.63  5 12 29 87 19640 545363 18075   1 432 40% 10 53 53%
c B  3.63  5 12 29 87 19640 545363 18075   1 432 40% 10 53 53%
c -  3.64  5 12 29 88 19641 546488 9716   1 432 40% 10 53 53%
c
c  seconds   switched     conflicts      irredundant variables
c         MB   reductions        redundant      trail  remaining
c          level    restarts           binary      glue
c
c -  3.72  6 12 29 89 19646 555870 10045   2 432 40% 9 53 53%
c s  3.77  5 12 29 89 19650 562489 16589   2 424 40% 9 53 53%
c -  3.80  5 12 29 90 19652 565303 11196   2 424 40% 9 53 53%
c i  3.85  5 11 29 90 19654 571072 16920  11 424 40% 9 52 52%
c -  3.88  5 11 29 91 19654 574789 7247   2 424 40% 9 52 52%
c u  3.89  5 11 29 91 19654 575239 7629  60 396 40% 9 52 52%
c v  3.90  5 11 29 91 19654 575239 7545 144 396 40% 9 52 52%
c t  3.90  5 11 29 91 19654 575239 7545   3 396 40% 9 52 52%
c i  3.94  5 11 29 91 19656 580743 12950  14 396 40% 9 51 51%
c i  3.95  5 11 29 91 19657 582123 14300  26 396 40% 9 50 50%
c i  3.95  5 11 29 91 19657 582395 14560  35 396 40% 9 49 49%
c i  3.95  5 11 29 91 19657 582552 14703  42 396 40% 9 48 48%
c i  3.95  5 11 29 91 19657 582600 14743  48 396 40% 9 44 44%
c i  3.95  5 11 29 91 19657 582634 14771  53 396 40% 9 43 43%
c i  3.95  5 11 29 91 19657 582651 14781  57 396 40% 9 42 42%
c i  3.95  5 11 29 91 19657 582671 14796  60 396 40% 9 41 41%
c i  3.95  5 11 29 91 19657 582678 14799  63 396 40% 9 40 40%
c i  3.95  5 11 29 91 19657 582688 14797  65 396 40% 9 39 39%
c i  3.95  5 11 29 91 19657 582694 14793  67 396 40% 9 38 38%
c ]  3.95  5 11 29 91 19657 582697 14793  68 396 40% 9 35 35%
c
c  seconds   switched     conflicts      irredundant variables
c         MB   reductions        redundant      trail  remaining
c          level    restarts           binary      glue
c
c 0  3.95  5 12 29 91 19657 582697 14793  68 396 42% 9 35 35%
variable 1: freq_cnt = 661
variable 2: freq_cnt = 430
variable 3: freq_cnt = 65
variable 4: freq_cnt = 474
variable 5: freq_cnt = 554
variable 6: freq_cnt = 5949
variable 7: freq_cnt = 227
variable 8: freq_cnt = 62320
variable 9: freq_cnt = 9811
variable 10: freq_cnt = 2477
variable 11: freq_cnt = 123978
variable 12: freq_cnt = 785
variable 13: freq_cnt = 197
variable 14: freq_cnt = 14759
variable 15: freq_cnt = 92066
variable 16: freq_cnt = 252
variable 17: freq_cnt = 5531
variable 18: freq_cnt = 63377
variable 19: freq_cnt = 255
variable 20: freq_cnt = 770
variable 21: freq_cnt = 10183
variable 22: freq_cnt = 61808
variable 23: freq_cnt = 85162
variable 24: freq_cnt = 132
variable 25: freq_cnt = 84
variable 26: freq_cnt = 217
variable 27: freq_cnt = 2774
variable 28: freq_cnt = 15708
variable 29: freq_cnt = 175
variable 30: freq_cnt = 101
variable 31: freq_cnt = 310
variable 32: freq_cnt = 4132
variable 33: freq_cnt = 3094
variable 34: freq_cnt = 680
variable 35: freq_cnt = 79494
variable 36: freq_cnt = 5827
variable 37: freq_cnt = 107
variable 38: freq_cnt = 52149
variable 39: freq_cnt = 56693
variable 40: freq_cnt = 54006
variable 41: freq_cnt = 2080
variable 42: freq_cnt = 811
variable 43: freq_cnt = 2175
variable 44: freq_cnt = 8924
variable 45: freq_cnt = 926
variable 46: freq_cnt = 553
variable 47: freq_cnt = 21089
variable 48: freq_cnt = 114883
variable 49: freq_cnt = 61177
variable 50: freq_cnt = 1573
variable 51: freq_cnt = 2905
variable 52: freq_cnt = 3037
variable 53: freq_cnt = 69304
variable 54: freq_cnt = 4911
variable 55: freq_cnt = 2140
variable 56: freq_cnt = 433
variable 57: freq_cnt = 64110
variable 58: freq_cnt = 5820
variable 59: freq_cnt = 2659
variable 60: freq_cnt = 64071
variable 61: freq_cnt = 13043
variable 62: freq_cnt = 233
variable 63: freq_cnt = 25894
variable 64: freq_cnt = 116864
variable 65: freq_cnt = 6588
variable 66: freq_cnt = 2782
variable 67: freq_cnt = 514
variable 68: freq_cnt = 121262
variable 69: freq_cnt = 492
variable 70: freq_cnt = 85666
variable 71: freq_cnt = 486
variable 72: freq_cnt = 113361
variable 73: freq_cnt = 22545
variable 74: freq_cnt = 14466
variable 75: freq_cnt = 65911
variable 76: freq_cnt = 2874
variable 77: freq_cnt = 66334
variable 78: freq_cnt = 3378
variable 79: freq_cnt = 9214
variable 80: freq_cnt = 279
variable 81: freq_cnt = 67102
variable 82: freq_cnt = 863
variable 83: freq_cnt = 68409
variable 84: freq_cnt = 5696
variable 85: freq_cnt = 2667
variable 86: freq_cnt = 308
variable 87: freq_cnt = 2666
variable 88: freq_cnt = 43021
variable 89: freq_cnt = 273
variable 90: freq_cnt = 24686
variable 91: freq_cnt = 117
variable 92: freq_cnt = 65
variable 93: freq_cnt = 828
variable 94: freq_cnt = 63141
variable 95: freq_cnt = 337
variable 96: freq_cnt = 2407
variable 97: freq_cnt = 79
variable 98: freq_cnt = 110010
variable 99: freq_cnt = 21893
freq_sum is 2338109
variable frequency 0.000
variable frequency 0.000
variable frequency 0.000
variable frequency 0.000
variable frequency 0.000
variable frequency 0.003
variable frequency 0.000
variable frequency 0.027
variable frequency 0.004
variable frequency 0.001
variable frequency 0.053
variable frequency 0.000
variable frequency 0.000
variable frequency 0.006
variable frequency 0.039
variable frequency 0.000
variable frequency 0.002
variable frequency 0.027
variable frequency 0.000
variable frequency 0.000
variable frequency 0.004
variable frequency 0.026
variable frequency 0.036
variable frequency 0.000
variable frequency 0.000
variable frequency 0.000
variable frequency 0.001
variable frequency 0.007
variable frequency 0.000
variable frequency 0.000
variable frequency 0.000
variable frequency 0.002
variable frequency 0.001
variable frequency 0.000
variable frequency 0.034
variable frequency 0.002
variable frequency 0.000
variable frequency 0.022
variable frequency 0.024
variable frequency 0.023
variable frequency 0.001
variable frequency 0.000
variable frequency 0.001
variable frequency 0.004
variable frequency 0.000
variable frequency 0.000
variable frequency 0.009
variable frequency 0.049
variable frequency 0.026
variable frequency 0.001
variable frequency 0.001
variable frequency 0.001
variable frequency 0.030
variable frequency 0.002
variable frequency 0.001
variable frequency 0.000
variable frequency 0.027
variable frequency 0.002
variable frequency 0.001
variable frequency 0.027
variable frequency 0.006
variable frequency 0.000
variable frequency 0.011
variable frequency 0.050
variable frequency 0.003
variable frequency 0.001
variable frequency 0.000
variable frequency 0.052
variable frequency 0.000
variable frequency 0.037
variable frequency 0.000
variable frequency 0.048
variable frequency 0.010
variable frequency 0.006
variable frequency 0.028
variable frequency 0.001
variable frequency 0.028
variable frequency 0.001
variable frequency 0.004
variable frequency 0.000
variable frequency 0.029
variable frequency 0.000
variable frequency 0.029
variable frequency 0.002
variable frequency 0.001
variable frequency 0.000
variable frequency 0.001
variable frequency 0.018
variable frequency 0.000
variable frequency 0.011
variable frequency 0.000
variable frequency 0.000
variable frequency 0.000
variable frequency 0.027
variable frequency 0.000
variable frequency 0.001
variable frequency 0.000
variable frequency 0.047
variable frequency 0.009
c
c ---- [ result ] ------------------------------------------------------------
c
s UNSATISFIABLE
c
c ---- [ profiling ] ---------------------------------------------------------
c
c           3.52   88.92 %  search
c           1.80   45.43 %  focused
c           1.72   43.48 %  stable
c           0.44   11.07 %  simplify
c           0.42   10.57 %  probe
c           0.30    7.48 %  vivify
c           0.10    2.46 %  reduce
c           0.09    2.25 %  sweep
c           0.03    0.75 %  substitute
c           0.01    0.35 %  walking
c           0.01    0.16 %  eliminate
c           0.00    0.07 %  transitive
c           0.00    0.01 %  subsume
c           0.00    0.01 %  backbone
c           0.00    0.01 %  parse
c           0.00    0.00 %  warmup
c =============================================
c           3.95  100.00 %  total
c
c ---- [ statistics ] --------------------------------------------------------
c
c conflicts:                           582697           147331.88 per second
c decisions:                           989477                1.70 per conflict
c eliminated:                              46               46 %  variables
c jumped_reasons:                          35                0 %  propagations
c propagations:                       2338109           591179    per second
c queue_decisions:                     583094               59 %  decision
c random_decisions:                     21235                2 %  decision
c random_sequences:                       133             4381    interval
c reductions:                              91             6403    interval
c rephased:                                19            30668    interval
c restarts:                             19657               29.64 interval
c score_decisions:                     385148               39 %  decision
c strengthened:                            32                0 %  checks
c subsumed:                                16                0 %  checks
c switched:                                29            20093    interval
c vivified:                              3580                6 %  checks
c vivify_checks:                        60023             1765    per vivify
c vivify_units:                             0                0 %  variables
c walk_improved:                            6              100 %  walks
c walks:                                    6            97116    interval
c
c ---- [ resources ] ---------------------------------------------------------
c
c maximum-resident-set-size:          5832704 bytes          6 MB
c process-time:                             4s               3.95 seconds
c
c ---- [ shutting down ] -----------------------------------------------------
c
c exit 20
